
Gurobi 12.0.2 (win64) logging started Fri Jun  6 10:09:22 2025

Set parameter LogFile to value "C:\Ioana\_uni\honours\slp\algorithm\Main_files\results\others\prox_tubules_new\Task_003_Sample002_irr_gurobi.log"
Gurobi Optimizer version 12.0.2 build v12.0.2rc0 (win64 - Windows 11.0 (26100.2))

CPU model: Intel(R) Core(TM) Ultra 5 125H, instruction set [SSE2|AVX|AVX2]
Thread count: 14 physical cores, 18 logical processors, using up to 18 threads

Non-default parameters:
TimeLimit  2200

Optimize a model with 47658 rows, 34799 columns and 147846 nonzeros
Model fingerprint: 0x5a24bb1a
Variable types: 17405 continuous, 17394 integer (17394 binary)
Coefficient statistics:
  Matrix range     [1e-04, 8e+04]
  Objective range  [1e-04, 9e-01]
  Bounds range     [1e+00, 1e+03]
  RHS range        [1e+00, 1e+00]
Presolve removed 31252 rows and 21835 columns
Presolve time: 0.31s
Presolved: 16406 rows, 12964 columns, 54597 nonzeros
Variable types: 6418 continuous, 6546 integer (6546 binary)

Root relaxation: objective 5.311681e-03, 2541 iterations, 0.16 seconds (0.32 work units)

    Nodes    |    Current Node    |     Objective Bounds      |     Work
 Expl Unexpl |  Obj  Depth IntInf | Incumbent    BestBd   Gap | It/Node Time

     0     0    0.00531    0   11          -    0.00531      -     -    0s
H    0     0                       4.4217524    0.00531   100%     -    0s
     0     0    1.77271    0   12    4.42175    1.77271  59.9%     -    0s
     0     0    1.78474    0   11    4.42175    1.78474  59.6%     -    1s
     0     0    1.78698    0   13    4.42175    1.78698  59.6%     -    1s
     0     0    2.00249    0   29    4.42175    2.00249  54.7%     -    1s
     0     0    2.00249    0    6    4.42175    2.00249  54.7%     -    1s
     0     0    3.53580    0   11    4.42175    3.53580  20.0%     -    1s
     0     0    4.41570    0    4    4.42175    4.41570  0.14%     -    1s
     0     0    4.41823    0    2    4.42175    4.41823  0.08%     -    1s

Cutting planes:
  Cover: 4
  MIR: 3
  Flow cover: 7
  Flow path: 2
  Network: 2
  Relax-and-lift: 1

Explored 1 nodes (4763 simplex iterations) in 1.49 seconds (1.76 work units)
Thread count was 18 (of 18 available processors)

Solution count 1: 4.42175 

Optimal solution found (tolerance 1.00e-04)
Best objective 4.421752438062e+00, best bound 4.421752438062e+00, gap 0.0000%

Gurobi 12.0.2 (win64) logging started Fri Jun  6 14:25:34 2025

Set parameter LogFile to value "C:\Ioana\_uni\honours\slp\algorithm\Main_files\results\others\prox_tubules_new\Task_003_Sample002_irr_gurobi.log"
Gurobi Optimizer version 12.0.2 build v12.0.2rc0 (win64 - Windows 11.0 (26100.2))

CPU model: Intel(R) Core(TM) Ultra 5 125H, instruction set [SSE2|AVX|AVX2]
Thread count: 14 physical cores, 18 logical processors, using up to 18 threads

Non-default parameters:
TimeLimit  2200

Optimize a model with 47658 rows, 34799 columns and 147846 nonzeros
Model fingerprint: 0x5a24bb1a
Variable types: 17405 continuous, 17394 integer (17394 binary)
Coefficient statistics:
  Matrix range     [1e-04, 8e+04]
  Objective range  [1e-04, 9e-01]
  Bounds range     [1e+00, 1e+03]
  RHS range        [1e+00, 1e+00]
Presolve removed 31252 rows and 21835 columns
Presolve time: 0.29s
Presolved: 16406 rows, 12964 columns, 54597 nonzeros
Variable types: 6418 continuous, 6546 integer (6546 binary)

Root relaxation: objective 5.311681e-03, 2541 iterations, 0.18 seconds (0.32 work units)

    Nodes    |    Current Node    |     Objective Bounds      |     Work
 Expl Unexpl |  Obj  Depth IntInf | Incumbent    BestBd   Gap | It/Node Time

     0     0    0.00531    0   11          -    0.00531      -     -    0s
H    0     0                       4.4217524    0.00531   100%     -    0s
     0     0    1.77271    0   12    4.42175    1.77271  59.9%     -    0s
     0     0    1.78474    0   11    4.42175    1.78474  59.6%     -    1s
     0     0    1.78698    0   13    4.42175    1.78698  59.6%     -    1s
     0     0    2.00249    0   29    4.42175    2.00249  54.7%     -    1s
     0     0    2.00249    0    6    4.42175    2.00249  54.7%     -    1s
     0     0    3.53580    0   11    4.42175    3.53580  20.0%     -    1s
     0     0    4.41570    0    4    4.42175    4.41570  0.14%     -    1s
     0     0    4.41823    0    2    4.42175    4.41823  0.08%     -    1s

Cutting planes:
  Cover: 4
  MIR: 3
  Flow cover: 7
  Flow path: 2
  Network: 2
  Relax-and-lift: 1

Explored 1 nodes (4763 simplex iterations) in 1.54 seconds (1.76 work units)
Thread count was 18 (of 18 available processors)

Solution count 1: 4.42175 

Optimal solution found (tolerance 1.00e-04)
Best objective 4.421752438062e+00, best bound 4.421752438062e+00, gap 0.0000%
